3	25
218	120	443	250	702	689	971	380	613	849	254	557	925	915	716	649	497	417	893	961	745	246	107	452	242	
499	501	250	931	413	91	450	700	515	386	722	784	900	399	874	760	530	237	193	170	539	69	929	133	723	
2117	2117	2117	
